(set-info :smt-lib-version 2.6)
(set-logic QF_NIA)
(set-info :source |
Generated by: Cristina Borralleras, Daniel Larraz, Albert Oliveras, Enric Rodriguez-Carbonell, Albert Rubio
Generated on: 2017-04-27
Generator: VeryMax
Application: Termination proving
Target solver: barcelogic
|)
(set-info :license "https://creativecommons.org/licenses/by/4.0/")
(set-info :category "industrial")
(set-info :status unknown)
(declare-fun Nl3arg11 () Int)
(declare-fun Nl3arg21 () Int)
(declare-fun Nl3arg31 () Int)
(declare-fun Nl3arg12 () Int)
(declare-fun Nl3arg22 () Int)
(declare-fun Nl3arg32 () Int)
(declare-fun lam0n0 () Int)
(declare-fun lam0n1 () Int)
(declare-fun lam0n2 () Int)
(declare-fun lam0n3 () Int)
(declare-fun Nl3CT1 () Int)
(declare-fun Nl3CT2 () Int)
(declare-fun lam1n0 () Int)
(declare-fun lam1n1 () Int)
(declare-fun lam1n2 () Int)
(declare-fun lam1n3 () Int)
(declare-fun lam2n0 () Int)
(declare-fun lam2n1 () Int)
(declare-fun lam2n2 () Int)
(declare-fun lam2n3 () Int)
(declare-fun lam3n0 () Int)
(declare-fun lam3n1 () Int)
(declare-fun lam3n2 () Int)
(declare-fun lam4n0 () Int)
(declare-fun lam4n1 () Int)
(declare-fun lam4n2 () Int)
(declare-fun lam5n0 () Int)
(declare-fun lam5n1 () Int)
(declare-fun lam5n2 () Int)
(declare-fun lam5n3 () Int)
(declare-fun lam6n0 () Int)
(declare-fun lam6n1 () Int)
(declare-fun lam6n2 () Int)
(declare-fun lam6n3 () Int)
(declare-fun arg2 () Int)
(declare-fun undef7 () Int)
(declare-fun arg3 () Int)
(declare-fun undef8 () Int)
(declare-fun undef9 () Int)
(declare-fun undef10 () Int)
(declare-fun undef11 () Int)
(declare-fun undef12 () Int)
(declare-fun lam10n0 () Int)
(declare-fun lam10n1 () Int)
(declare-fun lam10n2 () Int)
(declare-fun lam10n3 () Int)
(declare-fun RFN1_CT () Int)
(declare-fun RFN1_arg1 () Int)
(declare-fun RFN1_arg2 () Int)
(declare-fun RFN1_arg3 () Int)
(declare-fun lam8n0 () Int)
(declare-fun lam8n1 () Int)
(declare-fun lam8n2 () Int)
(declare-fun lam8n3 () Int)
(declare-fun lam9n0 () Int)
(declare-fun lam9n1 () Int)
(declare-fun lam9n2 () Int)
(declare-fun lam9n3 () Int)
(declare-fun lam7n0 () Int)
(declare-fun lam7n1 () Int)
(declare-fun lam7n2 () Int)
(declare-fun lam7n3 () Int)
(assert ( and ( <= ( - 1 ) Nl3arg11 ) ( <= Nl3arg11 1 ) ( <= ( - 1 ) Nl3arg21 ) ( <= Nl3arg21 1 ) ( <= ( - 1 ) Nl3arg31 ) ( <= Nl3arg31 1 ) ( <= ( - 1 ) Nl3arg12 ) ( <= Nl3arg12 1 ) ( <= ( - 1 ) Nl3arg22 ) ( <= Nl3arg22 1 ) ( <= ( - 1 ) Nl3arg32 ) ( <= Nl3arg32 1 ) ))
(assert ( or ( and ( >= lam0n0 0 ) ( >= lam0n1 0 ) ( >= lam0n2 0 ) ( >= lam0n3 0 ) ( > ( + ( * 1 lam0n0 ) ( * Nl3CT1 lam0n2 ) ( * Nl3CT2 lam0n3 ) ( - 1 ) ) 0 ) ( = ( + ( * ( - 1 ) lam0n0 ) ( * Nl3arg11 lam0n2 ) ( * Nl3arg12 lam0n3 ) ) 0 ) ( = ( + ( * Nl3arg21 lam0n2 ) ( * Nl3arg22 lam0n3 ) ) 0 ) ( = ( + ( * Nl3arg31 lam0n2 ) ( * Nl3arg32 lam0n3 ) ) 0 ) ( = ( * ( - 1 ) lam0n1 ) 0 ) ) ( and ( >= lam1n0 0 ) ( >= lam1n1 0 ) ( >= lam1n2 0 ) ( >= lam1n3 0 ) ( > ( + ( * 1 lam1n0 ) ( * Nl3CT1 lam1n2 ) ( * Nl3CT2 lam1n3 ) ( - 1 ( + ( + ( + Nl3CT1 ( * Nl3arg11 0 ) ) ( * Nl3arg21 0 ) ) ( * Nl3arg31 0 ) ) ) ) 0 ) ( = ( + ( * ( - 1 ) lam1n0 ) ( * Nl3arg11 lam1n2 ) ( * Nl3arg12 lam1n3 ) ) 0 ) ( = ( + ( * Nl3arg21 lam1n2 ) ( * Nl3arg22 lam1n3 ) ) 0 ) ( = ( + ( * Nl3arg31 lam1n2 ) ( * Nl3arg32 lam1n3 ) ) 0 ) ( = ( + ( * ( - 1 ) lam1n1 ) ( - ( + 0 ( * Nl3arg11 1 ) ) ) ) 0 ) ( = ( - ( + 0 ( * Nl3arg21 1 ) ) ) 0 ) ( = ( - ( + 0 ( * Nl3arg31 1 ) ) ) 0 ) ) ))
(assert ( or ( and ( >= lam0n0 0 ) ( >= lam0n1 0 ) ( >= lam0n2 0 ) ( >= lam0n3 0 ) ( > ( + ( * 1 lam0n0 ) ( * Nl3CT1 lam0n2 ) ( * Nl3CT2 lam0n3 ) ( - 1 ) ) 0 ) ( = ( + ( * ( - 1 ) lam0n0 ) ( * Nl3arg11 lam0n2 ) ( * Nl3arg12 lam0n3 ) ) 0 ) ( = ( + ( * Nl3arg21 lam0n2 ) ( * Nl3arg22 lam0n3 ) ) 0 ) ( = ( + ( * Nl3arg31 lam0n2 ) ( * Nl3arg32 lam0n3 ) ) 0 ) ( = ( * ( - 1 ) lam0n1 ) 0 ) ) ( and ( >= lam2n0 0 ) ( >= lam2n1 0 ) ( >= lam2n2 0 ) ( >= lam2n3 0 ) ( > ( + ( * 1 lam2n0 ) ( * Nl3CT1 lam2n2 ) ( * Nl3CT2 lam2n3 ) ( - 1 ( + ( + ( + Nl3CT2 ( * Nl3arg12 0 ) ) ( * Nl3arg22 0 ) ) ( * Nl3arg32 0 ) ) ) ) 0 ) ( = ( + ( * ( - 1 ) lam2n0 ) ( * Nl3arg11 lam2n2 ) ( * Nl3arg12 lam2n3 ) ) 0 ) ( = ( + ( * Nl3arg21 lam2n2 ) ( * Nl3arg22 lam2n3 ) ) 0 ) ( = ( + ( * Nl3arg31 lam2n2 ) ( * Nl3arg32 lam2n3 ) ) 0 ) ( = ( + ( * ( - 1 ) lam2n1 ) ( - ( + 0 ( * Nl3arg12 1 ) ) ) ) 0 ) ( = ( - ( + 0 ( * Nl3arg22 1 ) ) ) 0 ) ( = ( - ( + 0 ( * Nl3arg32 1 ) ) ) 0 ) ) ))
(assert ( or ( and ( <= ( + 1 ( * ( - 1 ) arg2 ) ) 0 ) ( <= ( + 1 ( * ( - 1 ) undef7 ) ) 0 ) ( <= arg3 0 ) ( <= ( + ( + ( + ( + Nl3CT1 ( * Nl3arg11 0 ) ) ( * Nl3arg21 0 ) ) ( * Nl3arg31 0 ) ) ( * ( + 0 ( * Nl3arg11 1 ) ) undef7 ) ( * ( + 0 ( * Nl3arg21 1 ) ) undef8 ) ( * ( + 0 ( * Nl3arg31 1 ) ) undef9 ) ) 0 ) ( <= ( + ( + ( + ( + Nl3CT2 ( * Nl3arg12 0 ) ) ( * Nl3arg22 0 ) ) ( * Nl3arg32 0 ) ) ( * ( + 0 ( * Nl3arg12 1 ) ) undef7 ) ( * ( + 0 ( * Nl3arg22 1 ) ) undef8 ) ( * ( + 0 ( * Nl3arg32 1 ) ) undef9 ) ) 0 ) ) ( and ( <= ( + ( - 1 ) ( * ( - 1 ) arg2 ) undef10 ) 0 ) ( <= arg3 0 ) ( <= ( + 2 ( * ( - 1 ) arg2 ) ) 0 ) ( <= ( + 3 ( * ( - 1 ) undef10 ) ) 0 ) ( <= ( + ( + ( + ( + Nl3CT1 ( * Nl3arg11 0 ) ) ( * Nl3arg21 0 ) ) ( * Nl3arg31 0 ) ) ( * ( + 0 ( * Nl3arg11 1 ) ) undef10 ) ( * ( + 0 ( * Nl3arg21 1 ) ) undef11 ) ( * ( + 0 ( * Nl3arg31 1 ) ) undef12 ) ) 0 ) ( <= ( + ( + ( + ( + Nl3CT2 ( * Nl3arg12 0 ) ) ( * Nl3arg22 0 ) ) ( * Nl3arg32 0 ) ) ( * ( + 0 ( * Nl3arg12 1 ) ) undef10 ) ( * ( + 0 ( * Nl3arg22 1 ) ) undef11 ) ( * ( + 0 ( * Nl3arg32 1 ) ) undef12 ) ) 0 ) ) ))
(assert ( or ( and ( and ( >= lam10n0 0 ) ( >= lam10n1 0 ) ( >= lam10n2 0 ) ( >= lam10n3 0 ) ( > ( + ( * 1 lam10n0 ) ( * Nl3CT1 lam10n2 ) ( * Nl3CT2 lam10n3 ) ( - 1 ( - ( + ( + ( + RFN1_CT ( * RFN1_arg1 0 ) ) ( * RFN1_arg2 0 ) ) ( * RFN1_arg3 0 ) ) RFN1_CT ) ) ) 0 ) ( = ( + ( * ( - 1 ) lam10n0 ) ( * Nl3arg11 lam10n2 ) ( * Nl3arg12 lam10n3 ) ( - ( - RFN1_arg1 ) ) ) 0 ) ( = ( + ( * Nl3arg21 lam10n2 ) ( * Nl3arg22 lam10n3 ) ( - ( - RFN1_arg2 ) ) ) 0 ) ( = ( + ( * Nl3arg31 lam10n2 ) ( * Nl3arg32 lam10n3 ) ( - ( - RFN1_arg3 ) ) ) 0 ) ( = ( + ( * ( - 1 ) lam10n1 ) ( - ( + 0 ( * RFN1_arg1 1 ) ) ) ) 0 ) ( = ( - ( + 0 ( * RFN1_arg2 1 ) ) ) 0 ) ( = ( - ( + 0 ( * RFN1_arg3 1 ) ) ) 0 ) ) ( and ( and ( >= lam8n0 0 ) ( >= lam8n1 0 ) ( >= lam8n2 0 ) ( >= lam8n3 0 ) ( > ( + ( * 1 lam8n0 ) ( * Nl3CT1 lam8n2 ) ( * Nl3CT2 lam8n3 ) ( - 1 ( - RFN1_CT ) ) ) 0 ) ( = ( + ( * ( - 1 ) lam8n0 ) ( * Nl3arg11 lam8n2 ) ( * Nl3arg12 lam8n3 ) ( - ( - RFN1_arg1 ) ) ) 0 ) ( = ( + ( * Nl3arg21 lam8n2 ) ( * Nl3arg22 lam8n3 ) ( - ( - RFN1_arg2 ) ) ) 0 ) ( = ( + ( * Nl3arg31 lam8n2 ) ( * Nl3arg32 lam8n3 ) ( - ( - RFN1_arg3 ) ) ) 0 ) ( = ( * ( - 1 ) lam8n1 ) 0 ) ) ( and ( >= lam9n0 0 ) ( >= lam9n1 0 ) ( >= lam9n2 0 ) ( >= lam9n3 0 ) ( > ( + ( * 1 lam9n0 ) ( * Nl3CT1 lam9n2 ) ( * Nl3CT2 lam9n3 ) ( - 1 ( + ( - ( + ( + ( + RFN1_CT ( * RFN1_arg1 0 ) ) ( * RFN1_arg2 0 ) ) ( * RFN1_arg3 0 ) ) RFN1_CT ) 1 ) ) ) 0 ) ( = ( + ( * ( - 1 ) lam9n0 ) ( * Nl3arg11 lam9n2 ) ( * Nl3arg12 lam9n3 ) ( - ( - RFN1_arg1 ) ) ) 0 ) ( = ( + ( * Nl3arg21 lam9n2 ) ( * Nl3arg22 lam9n3 ) ( - ( - RFN1_arg2 ) ) ) 0 ) ( = ( + ( * Nl3arg31 lam9n2 ) ( * Nl3arg32 lam9n3 ) ( - ( - RFN1_arg3 ) ) ) 0 ) ( = ( + ( * ( - 1 ) lam9n1 ) ( - ( + 0 ( * RFN1_arg1 1 ) ) ) ) 0 ) ( = ( - ( + 0 ( * RFN1_arg2 1 ) ) ) 0 ) ( = ( - ( + 0 ( * RFN1_arg3 1 ) ) ) 0 ) ) ) ) ( and ( >= lam7n0 0 ) ( >= lam7n1 0 ) ( >= lam7n2 0 ) ( >= lam7n3 0 ) ( > ( + ( * 1 lam7n0 ) ( * Nl3CT1 lam7n2 ) ( * Nl3CT2 lam7n3 ) ( - 1 ) ) 0 ) ( = ( + ( * ( - 1 ) lam7n0 ) ( * Nl3arg11 lam7n2 ) ( * Nl3arg12 lam7n3 ) ) 0 ) ( = ( + ( * Nl3arg21 lam7n2 ) ( * Nl3arg22 lam7n3 ) ) 0 ) ( = ( + ( * Nl3arg31 lam7n2 ) ( * Nl3arg32 lam7n3 ) ) 0 ) ( = ( * ( - 1 ) lam7n1 ) 0 ) ) ))
(check-sat)
(exit)
